NAME          COPTPROB
OBJSENSE
  MIN
ROWS
 N  __OBJ___
 L  C179    
 L  C182    
 L  C188    
COLUMNS
    MARKER    'MARKER'                 'INTORG'
    x16       __OBJ___  200
    x16       C179      -1
    x16       C182      -1
    x231      __OBJ___  70
    x231      C179      -1
    x375      __OBJ___  198
    x375      C182      -1
    x658      __OBJ___  78
    x658      C179      -1
    x658      C188      -1
    x729      __OBJ___  250
    x729      C182      -1
    x729      C188      -1
    MARKER    'MARKER'                 'INTEND'
RHS
    RHS       __OBJ___  -17632
    RHS       C179      -1
    RHS       C182      -1
    RHS       C188      -1
BOUNDS
 UP BOUND     x16       1
 UP BOUND     x231      1
 UP BOUND     x375      1
 UP BOUND     x658      1
 UP BOUND     x729      1
ENDATA
